findsym-output                          
   1.00000000000000     
     6.8775391579000003    0.0000000000000000    0.0000000000000000
     0.0000000000000000    4.1201701163999997    0.0000000000000000
     0.0000000000000000    0.0000000000000000   28.1028003692999988
   In   Se
     4     6
Direct
  0.3183799979999975  0.3212200110000012  0.0692299979999973
  0.6816200020000025  0.3212200110000012  0.9307699800000009
  0.8183799979999975  0.8212200400000000  0.0692299979999973
  0.1816200020000025  0.8212200400000000  0.9307699800000009
  0.6632099750000009  0.3264999989999993  0.1163399960000007
  0.3367900249999991  0.3264999989999993  0.8836600180000005
  0.1632099750000009  0.8264999989999993  0.1163399960000007
  0.8367900249999991  0.8264999989999993  0.8836600180000005
  0.0000000000000000  0.4641900060000026  0.0000000000000000
  0.5000000000000000  0.9641900060000026  0.0000000000000000
 
  0.00000000E+00  0.00000000E+00  0.00000000E+00
  0.00000000E+00  0.00000000E+00  0.00000000E+00
  0.00000000E+00  0.00000000E+00  0.00000000E+00
  0.00000000E+00  0.00000000E+00  0.00000000E+00
  0.00000000E+00  0.00000000E+00  0.00000000E+00
  0.00000000E+00  0.00000000E+00  0.00000000E+00
  0.00000000E+00  0.00000000E+00  0.00000000E+00
  0.00000000E+00  0.00000000E+00  0.00000000E+00
  0.00000000E+00  0.00000000E+00  0.00000000E+00
  0.00000000E+00  0.00000000E+00  0.00000000E+00
