beta3                                   
   1.00000000000000     
     7.0356001853999999    0.0000000000000000    0.0000000000000000
     0.0000000000000000    4.0619997978000004    0.0000000000000000
     0.0000000000000000    0.0000000000000000   40.0000000000000000
   Se   In
     6     4
Direct
  0.2522267344810193  0.6679507088482668  0.5303120451843031
  0.8571680283898454  0.7778611238887934  0.6124464122603688
  0.0962550366106634  0.2930999571439929  0.6935910088221785
  0.7475089128230450  0.2700680039224978  0.5326174368494425
  0.3557375724475291  0.1657264611463757  0.6108121019404141
  0.6030677687142865  0.7468439661840723  0.6937040619545235
  0.0815404099081093  0.1564233712964282  0.5622594939959242
  0.7718648710248397  0.2521674939849705  0.6591030401755907
  0.5751406383640187  0.7838191514933635  0.5650595946913892
  0.2729698732366464  0.7852497100912380  0.6631147971258716
 
  0.00000000E+00  0.00000000E+00  0.00000000E+00
  0.00000000E+00  0.00000000E+00  0.00000000E+00
  0.00000000E+00  0.00000000E+00  0.00000000E+00
  0.00000000E+00  0.00000000E+00  0.00000000E+00
  0.00000000E+00  0.00000000E+00  0.00000000E+00
  0.00000000E+00  0.00000000E+00  0.00000000E+00
  0.00000000E+00  0.00000000E+00  0.00000000E+00
  0.00000000E+00  0.00000000E+00  0.00000000E+00
  0.00000000E+00  0.00000000E+00  0.00000000E+00
  0.00000000E+00  0.00000000E+00  0.00000000E+00
