beta_o
1.0
        3.9818000793         0.0000000000         0.0000000000
        0.0000000000         6.8965997696         0.0000000000
        0.0000000000         0.0000000000        28.1028003693
   In   Se
    4    6
Direct
     0.000100000         0.661170006         0.421710014
     0.000100000         0.994499981         0.555610001
     0.500100017         0.161170006         0.421710014
     0.500100017         0.494500011         0.555610001
     0.000100000         0.994499981         0.373600006
     0.000100000         0.661170006         0.603720009
     0.120100000         0.327780008         0.488660008
     0.500100017         0.161170006         0.603720009
     0.500100017         0.494500011         0.373600006
     0.620100017         0.827780008         0.488660008
