findsym-output                          
   1.00000000000000     
     4.1027836807608455    0.0000000000000000    0.0000000000000000
    -2.0513918403804228    3.5531148937713026    0.0000000000000000
     0.0000000000000000    0.0000000000000000   30.0000000000000000
   In   Se
     2     3
Direct
  0.6666666870000029  0.3333333429999996  0.3886616498255933
  0.3333333429999996  0.6666666870000029  0.5296320026006711
  0.0000000000000000  0.0000000000000000  0.3471350991043423
  0.6666666870000029  0.3333333429999996  0.4735822970624142
  0.0000000000000000  0.0000000000000000  0.5736590034069806
 
  0.00000000E+00  0.00000000E+00  0.00000000E+00
  0.00000000E+00  0.00000000E+00  0.00000000E+00
  0.00000000E+00  0.00000000E+00  0.00000000E+00
  0.00000000E+00  0.00000000E+00  0.00000000E+00
  0.00000000E+00  0.00000000E+00  0.00000000E+00
