beta_prime                              
   1.00000000000000     
     6.9074996097518735   -0.0002920044909920    0.0000000000000000
    -0.0896340423003198    4.0385049232893380    0.0000000000000000
     0.0000000000000000    0.0000000000000000   28.3512992859000015
   Se   In
     6     4
Direct
  0.5018746223962580  0.4944171079875233  0.3949326391204778
  0.0018746214215142  0.9944171112237825  0.3949326392374971
  0.6635689665398630  0.0092683052562990  0.6260611595862798
  0.1635689684825365  0.5092683105903149  0.6260611592327777
  0.8711775614444477  0.3864616850956395  0.5101544409257116
  0.3711775624644105  0.8864616831664307  0.5101544411019333
  0.6630019458993814  0.0110664689329170  0.4420747309578076
  0.1630019465706738  0.5110664713328674  0.4420747308173901
  0.5001569339802998  0.4994964535176578  0.5792770310900451
  0.0001569308006069  0.9994964598965623  0.5792770319300772
