image0                                  
   1.00000000000000     
     3.9817605732355812   -0.0000007474334244    0.0000000000000000
    -1.9908809332958852    3.4483053723542794    0.0000000000000000
     0.0000000000000000    0.0000000000000000   28.1028003692999988
   In   Se
     2     3
Direct
  0.6666954059790190  0.3333046119326407  0.0441399378505606
  0.0000284275092827  0.9999715766689927  0.1786804925716249
  0.0000223625294580  0.9999776466788206  0.9958049403258716
  0.6666888848226216  0.3333111387392313  0.2270137322279967
  0.3332349721596159  0.6667650599803068  0.1114108750239551
 
  0.00000000E+00  0.00000000E+00  0.00000000E+00
  0.00000000E+00  0.00000000E+00  0.00000000E+00
  0.00000000E+00  0.00000000E+00  0.00000000E+00
  0.00000000E+00  0.00000000E+00  0.00000000E+00
  0.00000000E+00  0.00000000E+00  0.00000000E+00
